sing20200527.12
TTAA 77121 48698
99008 29637 34504 00097 28440 10007 92786 23221 32503
85523 20859 26013 70176 11256 29014 50590 05701 29010
40762 14519 12510 30974 29524 09510 25101 39535 10521
20250 52143 09528 15430 67158 11038 10666 79959 04039
88102 79958 05041
77999=
TTCC 77127 48698
70871 75365 31512
88999
77999=
TTDD 7712/ 48698
11937 80558 22839 72567 33740 76763 44623 74167 55562
76165 66518 74167
21212 11964 04542 22904 07547 33836 13522 44816 14018
55737 16010 66707 29510 77692 32512 88662 33513 99642
00510 11612 17001 22541 04010 33534 06012 44519 04015
55518 04015 66555 05512 77655 00000 88678 00510 99688
35015 11759 22005=
